Na Bi Rb
1.0
  0.000000000000   3.998357000000   3.998357000000
  3.998357000000   0.000000000000   3.998357000000
  3.998357000000   3.998357000000   0.000000000000
Bi Na Rb
1 2 1
Direct
  0.250000187577   0.250000187577   0.250000187577
  0.000000000000   0.000000000000   0.000000000000
  0.500000375154   0.500000375154   0.500000375154
  0.749999312217   0.749999312217   0.749999312217
