K Bi Rb                                 
   1.00000000000000     
    -0.0000000000000000    4.4084854630595940    4.4084854630595940
     4.4084854630595940    0.0000000000000000    4.4084854630595940
     4.4084854630595940    4.4084854630595940   -0.0000000000000000
   Bi   K    Rb
     1     2     1
Direct
  0.2499999431770021  0.2499999431770021  0.2499999431770021
 -0.0000000000000000  0.0000000000000000  0.0000000000000000
  0.4999998863549990  0.4999998863549990  0.4999998863549990
  0.7499998295320012  0.7499998295320012  0.7499998295320012
 
  0.00000000E+00  0.00000000E+00  0.00000000E+00
  0.00000000E+00  0.00000000E+00  0.00000000E+00
  0.00000000E+00  0.00000000E+00  0.00000000E+00
  0.00000000E+00  0.00000000E+00  0.00000000E+00
