K Bi Rb
1.0
  0.000000000000   4.399661000000   4.399661000000
  4.399661000000   0.000000000000   4.399661000000
  4.399661000000   4.399661000000   0.000000000000
Bi K Rb
1 2 1
Direct
  0.249999943177   0.249999943177   0.249999943177
  0.000000000000   0.000000000000   0.000000000000
  0.499999886355   0.499999886355   0.499999886355
  0.749999829532   0.749999829532   0.749999829532
