Na K Bi                                 
   1.00000000000000     
     0.0000000000000000    3.9815888470274499    3.9815888470274499
     3.9815888470274499    0.0000000000000000    3.9815888470274499
     3.9815888470274499    3.9815888470274499    0.0000000000000000
   Bi   K    Na
     1     1     2
Direct
  0.2499999361860006  0.2499999361860006  0.2499999361860006
  0.7499998085580017  0.7499998085580017  0.7499998085580017
 -0.0000000000000000  0.0000000000000000 -0.0000000000000000
  0.4999998723720012  0.4999998723720012  0.4999998723720012
 
  0.00000000E+00  0.00000000E+00  0.00000000E+00
  0.00000000E+00  0.00000000E+00  0.00000000E+00
  0.00000000E+00  0.00000000E+00  0.00000000E+00
  0.00000000E+00  0.00000000E+00  0.00000000E+00
