Na K Bi
1.0
  0.000000000000   3.917641000000   3.917641000000
  3.917641000000   0.000000000000   3.917641000000
  3.917641000000   3.917641000000   0.000000000000
Bi K Na
1 1 2
Direct
  0.249999936186   0.249999936186   0.249999936186
  0.749999808558   0.749999808558   0.749999808558
  0.000000000000   0.000000000000   0.000000000000
  0.499999872372   0.499999872372   0.499999872372
