#= General Settings =#
  PREC = ACC
  ISTART = 0
  {ispin}
  {magmom}

#= Ionic Relaxation Settings =#
  EDIFFG = {ediffg}
  LREAL = .FALSE.
  NSW = 100
  IBRION = 2
  ISIF = {isif}

#= Electronic Relxation Settings =#
  NELMIN = 5
  ALGO = {algo}
  ENCUT = {encut}
  EDIFF = {ediff}

#= Write flags =#
  LCHARG = .FALSE.
  LWAVE = .FALSE.

#= DOS =#
  ISMEAR = {ismear}
  SIGMA = {sigma}

#= Parallelization =#
  LPLANE = .TRUE.
  NPAR = {npar}
  KPAR = {kpar}

  GGA = {gga}
