Na Bi Li
1.0
  0.000000000000   3.436678000000   3.436678000000
  3.436678000000   0.000000000000   3.436678000000
  3.436678000000   3.436678000000   0.000000000000
Bi Li Na
1 2 1
Direct
  0.250000145489   0.250000145489   0.250000145489
  0.000000000000   0.000000000000   0.000000000000
  0.499998836085   0.499998836085   0.499998836085
  0.750000436468   0.750000436468   0.750000436468
