Cs Bi Rb
1.0
  0.000000000000   4.568594000000   4.568594000000
  4.568594000000   0.000000000000   4.568594000000
  4.568594000000   4.568594000000   0.000000000000
Bi Cs Rb
1 1 2
Direct
  0.250000328329   0.250000328329   0.250000328329
  0.749999890557   0.749999890557   0.749999890557
  0.000000000000   0.000000000000   0.000000000000
  0.499999562229   0.499999562229   0.499999562229
