Na K Sb                                 
   1.00000000000000     
     3.9017261920720774   -3.9017261920720774   -0.0000000000000000
    -3.9017261920720774    0.0000000000000000   -3.9017261920720774
     3.9017261920720774    3.9017261920720774    0.0000000000000000
   K    Na   Sb
     1     2     1
Direct
  0.4999998700089989  0.0000000000000000  0.4999998700089989
  0.7500017548830016  0.5000011699220011  0.2500005849610005
  0.2500005849610005  0.5000011699220011  0.7500017548830016
  0.0000000000000000 -0.0000000000000000  0.0000000000000000
 
  0.00000000E+00  0.00000000E+00  0.00000000E+00
  0.00000000E+00  0.00000000E+00  0.00000000E+00
  0.00000000E+00  0.00000000E+00  0.00000000E+00
  0.00000000E+00  0.00000000E+00  0.00000000E+00
