Cs Sb Rb
1.0
  0.000000000000   4.512072000000   4.512072000000
  4.512072000000   0.000000000000   4.512072000000
  4.512072000000   4.512072000000   0.000000000000
Cs Rb Sb
1 2 1
Direct
  0.249999335117   0.249999335117   0.249999335117
  0.000000000000   0.000000000000   0.000000000000
  0.499999778372   0.499999778372   0.499999778372
  0.750000221628   0.750000221628   0.750000221628
