Cs Sb K                                 
   1.00000000000000     
     4.3802635524444327   -4.3802635524444327    0.0000000000000000
    -4.3802635524444327    0.0000000000000000   -4.3802635524444327
     4.3802635524444327    4.3802635524444327    0.0000000000000000
   Cs   K    Sb
     1     2     1
Direct
  0.5000004572399988  0.0000000000000000  0.5000004572399988
  0.7499989712090027  0.4999993141390036  0.2499996570699992
  0.2499996570699992  0.4999993141390036  0.7499989712090027
  0.0000000000000000  0.0000000000000000  0.0000000000000000
 
  0.00000000E+00  0.00000000E+00  0.00000000E+00
  0.00000000E+00  0.00000000E+00  0.00000000E+00
  0.00000000E+00  0.00000000E+00  0.00000000E+00
  0.00000000E+00  0.00000000E+00  0.00000000E+00
