Cs Sb Rb                                
   1.00000000000000     
     0.0000000000000000    4.5269395748256676    4.5269395748256676
     4.5269395748256676    0.0000000000000000    4.5269395748256676
     4.5269395748256676    4.5269395748256676    0.0000000000000000
   Cs   Rb   Sb
     1     2     1
Direct
  0.2499993351170033  0.2499993351170033  0.2499993351170033
  0.0000000000000000  0.0000000000000000  0.0000000000000000
  0.4999997783720005  0.4999997783720005  0.4999997783720005
  0.7500002216279995  0.7500002216279995  0.7500002216279995
 
  0.00000000E+00  0.00000000E+00  0.00000000E+00
  0.00000000E+00  0.00000000E+00  0.00000000E+00
  0.00000000E+00  0.00000000E+00  0.00000000E+00
  0.00000000E+00  0.00000000E+00  0.00000000E+00
