Cs K Bi                                 
   1.00000000000000     
     0.0000000000000000    4.4593595289589985    4.4593595289589985
     4.4593595289589985    0.0000000000000000    4.4593595289589985
     4.4593595289589985    4.4593595289589985    0.0000000000000000
   Bi   Cs   K 
     1     1     2
Direct
  0.2500005064320021  0.2500005064320021  0.2500005064320021
  0.7500003938909998  0.7500003938909998  0.7500003938909998
  0.0000000000000000  0.0000000000000000  0.0000000000000000
  0.4999998874599996  0.4999998874599996  0.4999998874599996
 
  0.00000000E+00  0.00000000E+00  0.00000000E+00
  0.00000000E+00  0.00000000E+00  0.00000000E+00
  0.00000000E+00  0.00000000E+00  0.00000000E+00
  0.00000000E+00  0.00000000E+00  0.00000000E+00
