Na Bi Li                                
   1.00000000000000     
     0.0000000000000000    3.4990560560645698    3.4990560560645698
     3.4990560560645698    0.0000000000000000    3.4990560560645698
     3.4990560560645698    3.4990560560645698    0.0000000000000000
   Bi   Li   Na
     1     2     1
Direct
  0.2500001454889968  0.2500001454889968  0.2500001454889968
  0.0000000000000000  0.0000000000000000  0.0000000000000000
  0.4999988360849983  0.4999988360849983  0.4999988360849983
  0.7500004364679995  0.7500004364679995  0.7500004364679995
 
  0.00000000E+00  0.00000000E+00  0.00000000E+00
  0.00000000E+00  0.00000000E+00  0.00000000E+00
  0.00000000E+00  0.00000000E+00  0.00000000E+00
  0.00000000E+00  0.00000000E+00  0.00000000E+00
