Cs Bi Rb                                
   1.00000000000000     
     0.0000000000000000    4.6103601821525206    4.6103601821525206
     4.6103601821525206    0.0000000000000000    4.6103601821525206
     4.6103601821525206    4.6103601821525206   -0.0000000000000000
   Bi   Cs   Rb
     1     1     2
Direct
  0.2500003283290013  0.2500003283290013  0.2500003283290013
  0.7499998905569996  0.7499998905569996  0.7499998905569996
  0.0000000000000000 -0.0000000000000000 -0.0000000000000000
  0.4999995622290001  0.4999995622290001  0.4999995622290001
 
  0.00000000E+00  0.00000000E+00  0.00000000E+00
  0.00000000E+00  0.00000000E+00  0.00000000E+00
  0.00000000E+00  0.00000000E+00  0.00000000E+00
  0.00000000E+00  0.00000000E+00  0.00000000E+00
