Na Bi Rb                                
   1.00000000000000     
     0.0000000000000000    4.0553661410561936    4.0553661410561936
     4.0553661410561936    0.0000000000000000    4.0553661410561936
     4.0553661410561936    4.0553661410561936    0.0000000000000000
   Bi   Na   Rb
     1     2     1
Direct
  0.2500001875770010  0.2500001875770010  0.2500001875770010
  0.0000000000000000  0.0000000000000000  0.0000000000000000
  0.5000003751540021  0.5000003751540021  0.5000003751540021
  0.7499993122169997  0.7499993122169997  0.7499993122169997
 
  0.00000000E+00  0.00000000E+00  0.00000000E+00
  0.00000000E+00  0.00000000E+00  0.00000000E+00
  0.00000000E+00  0.00000000E+00  0.00000000E+00
  0.00000000E+00  0.00000000E+00  0.00000000E+00
