Cs Sb K
1.0
  4.374066000000  -4.374066000000   0.000000000000
 -4.374066000000   0.000000000000  -4.374066000000
  4.374066000000   4.374066000000   0.000000000000
Cs K Sb
1 2 1
Direct
  0.500000457240   0.000000000000   0.500000457240
  0.749998971209   0.499999314139   0.249999657070
  0.249999657070   0.499999314139   0.749998971209
  0.000000000000   0.000000000000   0.000000000000
