Cs K Bi
1.0
  0.000000000000   4.442851000000   4.442851000000
  4.442851000000   0.000000000000   4.442851000000
  4.442851000000   4.442851000000   0.000000000000
Bi Cs K
1 1 2
Direct
  0.250000506432   0.250000506432   0.250000506432
  0.750000393891   0.750000393891   0.750000393891
  0.000000000000   0.000000000000   0.000000000000
  0.499999887460   0.499999887460   0.499999887460
