Na Sb Li
1.0
  3.378108000000  -3.378108000000   0.000000000000
 -3.378108000000   0.000000000000  -3.378108000000
  3.378108000000   3.378108000000   0.000000000000
Li Na Sb
2 1 1
Direct
  0.749998223858   0.499998815905   0.249999407953
  0.249999407953   0.499998815905   0.749998223858
  0.500000296024   0.000000000000   0.500000296024
  0.000000000000   0.000000000000   0.000000000000
