Na K Sb
1.0
  3.846411000000  -3.846411000000   0.000000000000
 -3.846411000000   0.000000000000  -3.846411000000
  3.846411000000   3.846411000000   0.000000000000
K Na Sb
1 2 1
Direct
  0.499999870009   0.000000000000   0.499999870009
  0.750001754883   0.500001169922   0.250000584961
  0.250000584961   0.500001169922   0.750001754883
  0.000000000000   0.000000000000   0.000000000000
