Na Sb Li                                
   1.00000000000000     
     3.4188333423414101   -3.4188333423414101   -0.0000000000000000
    -3.4188333423414101   -0.0000000000000000   -3.4188333423414101
     3.4188333423414101    3.4188333423414101   -0.0000000000000000
   Li   Na   Sb
     2     1     1
Direct
  0.7499982238580003  0.4999988159050019  0.2499994079529984
  0.2499994079529984  0.4999988159050019  0.7499982238580003
  0.5000002960239982  0.0000000000000000  0.5000002960239982
  0.0000000000000000  0.0000000000000000 -0.0000000000000000
 
  0.00000000E+00  0.00000000E+00  0.00000000E+00
  0.00000000E+00  0.00000000E+00  0.00000000E+00
  0.00000000E+00  0.00000000E+00  0.00000000E+00
  0.00000000E+00  0.00000000E+00  0.00000000E+00
